datasets/2-dimensional/CL_04_25_05.vbp
2
1000 1000 
25
58 160 30
69 94 72
72 112 4
151 98 88
139 134 54
70 55 64
176 194 90
143 183 26
151 157 94
136 149 28
80 91 72
167 118 49
180 112 54
102 158 19
116 87 28
157 85 61
57 83 84
149 66 23
68 66 67
95 167 53
116 53 54
62 56 16
68 110 9
166 198 54
141 54 77
