2-dimensional/CL_04_25_05.txt
1000 1000 
0 30 58 160 
1 72 69 94 
2 4 72 112 
3 88 151 98 
4 54 139 134 
5 64 70 55 
6 90 176 194 
7 26 143 183 
8 94 151 157 
9 28 136 149 
10 72 80 91 
11 49 167 118 
12 54 180 112 
13 19 102 158 
14 28 116 87 
15 61 157 85 
16 84 57 83 
17 23 149 66 
18 67 68 66 
19 53 95 167 
20 54 116 53 
21 16 62 56 
22 9 68 110 
23 54 166 198 
24 77 141 54 
